networks/zoo_132_4290/zoo_132_4290-lower.txt
Number of groups: 67
Flow 50: {1 51 0} {51 117 0} 
Flow 86: {2 22 0} {22 88 0} 
Flow 150: {3 62 0} {62 2 0} {2 21 0} {21 87 0} 
Flow 283: {5 24 0} {24 90 0} 
Flow 460: {8 5 0} {5 71 0} 
Flow 518: {8 2 0} {2 7 0} {7 61 0} {61 64 0} {64 130 0} 
Flow 537: {9 46 0} {46 26 0} {26 17 0} {17 18 0} {18 84 0} 
Flow 621: {10 46 0} {46 37 0} {37 103 0} 
Flow 704: {11 55 0} {55 121 0} 
Flow 716: {12 1 0} {1 67 0} 
Flow 825: {13 20 0} {20 46 0} {46 112 0} 
Flow 888: {14 20 0} {20 44 0} {44 110 0} 
Flow 912: {15 20 0} {20 2 0} {2 68 0} 
Flow 1003: {16 20 0} {20 29 0} {29 95 0} 
Flow 1078: {17 39 0} {39 105 0} 
Flow 1122: {18 17 0} {17 83 0} 
Flow 1210: {19 41 0} {41 107 0} 
Flow 1250: {20 15 0} {15 81 0} 
Flow 1344: {21 45 0} {45 111 0} 
Flow 1404: {22 2 0} {2 19 0} {19 40 0} {40 106 0} 
Flow 1438: {23 5 0} {5 8 0} {8 74 0} 
Flow 1502: {24 5 0} {5 7 0} {7 73 0} 
Flow 1572: {4 1 0} {1 12 0} {12 78 0} 
Flow 1700: {27 46 0} {46 10 0} {10 76 0} 
Flow 1817: {28 46 0} {46 63 0} {63 129 0} 
Flow 1849: {29 20 0} {20 30 0} {30 96 0} 
Flow 1916: {30 20 0} {20 26 0} {26 32 0} {32 98 0} 
Flow 1964: {31 20 0} {20 14 0} {14 80 0} 
Flow 2047: {32 26 0} {26 33 0} {33 99 0} 
Flow 2114: {33 26 0} {26 25 0} {25 35 0} {35 101 0} 
Flow 2180: {34 26 0} {26 46 0} {46 36 0} {36 102 0} 
Flow 2226: {25 26 0} {26 20 0} {20 16 0} {16 82 0} 
Flow 2237: {35 25 0} {25 46 0} {46 27 0} {27 93 0} 
Flow 2300: {36 46 0} {46 25 0} {25 91 0} 
Flow 2344: {37 46 0} {46 2 0} {2 4 0} {4 70 0} 
Flow 2433: {38 19 0} {19 2 0} {2 46 0} {46 28 0} {28 94 0} 
Flow 2489: {39 17 0} {17 19 0} {19 85 0} 
Flow 2600: {40 19 0} {19 17 0} {17 60 0} {60 66 0} {66 132 0} 
Flow 2638: {41 19 0} {19 38 0} {38 104 0} 
Flow 2673: {42 21 0} {21 2 0} {2 8 0} 
Flow 2750: {43 21 0} {21 20 0} {20 86 0} 
Flow 2837: {44 20 0} {20 21 0} {21 42 0} {42 108 0} 
Flow 2866: {6 72 0} 
Flow 2886: {26 92 0} 
Flow 2903: {45 21 0} {21 43 0} {43 109 0} 
Flow 2934: {46 9 0} {9 75 0} 
Flow 3039: {47 7 0} {7 1 0} {1 4 0} {4 6 0} {6 50 0} {50 116 0} 
Flow 3108: {48 11 0} {11 54 0} {54 120 0} 
Flow 3133: {49 4 0} {4 2 0} {2 20 0} {20 13 0} {13 79 0} 
Flow 3184: {59 60 0} {60 65 0} {65 131 0} 
Flow 3196: {50 6 0} {6 4 0} {4 11 0} {11 77 0} 
Flow 3208: {7 5 0} {5 23 0} {23 89 0} 
Flow 3240: {62 61 0} {61 56 0} {56 122 0} 
Flow 3302: {51 1 0} {1 7 0} {7 53 0} {53 119 0} 
Flow 3363: {52 7 0} {7 11 0} {11 48 0} {48 114 0} 
Flow 3438: {53 7 0} {7 2 0} {2 62 0} {62 59 0} {59 125 0} 
Flow 3492: {54 11 0} {11 7 0} {7 47 0} {47 113 0} 
Flow 3571: {55 11 0} {11 4 0} {4 62 0} {62 128 0} 
Flow 3609: {56 61 0} {61 60 0} {60 17 0} {17 26 0} {26 34 0} {34 100 0} 
Flow 3632: {61 62 0} {62 58 0} {58 124 0} 
Flow 3643: {57 60 0} {60 59 0} {59 62 0} {62 3 0} {3 69 0} 
Flow 3754: {58 62 0} {62 4 0} {4 49 0} {49 115 0} 
Flow 3892: {60 57 0} {57 123 0} 
Flow 4061: {63 46 0} {46 20 0} {20 31 0} {31 97 0} 
Flow 4156: {64 61 0} {61 127 0} 
Flow 4212: {65 60 0} {60 61 0} {61 7 0} {7 52 0} {52 118 0} 
Flow 4285: {66 60 0} {60 126 0} 
Time taken running everything: 25 seconds
