networks/zoo_132_4290/zoo_132_4290-lower.sol
<?xml version = "1.0" encoding="UTF-8" standalone="yes"?>
<CPLEXSolution version="1.2">
 <header
   problemName="networks/zoo_132_4290/zoo_132_4290-lower.lp"
   solutionName="incumbent"
   solutionIndex="-1"
   objectiveValue="66"
   solutionTypeValue="3"
   solutionTypeString="primal"
   solutionStatusValue="101"
   solutionStatusString="integer optimal solution"
   solutionMethodString="mip"
   primalFeasible="1"
   dualFeasible="1"
   MIPNodes="0"
   MIPIterations="0"
   writeLevel="3"/>
 <quality
   epInt="1.0000000000000001e-05"
   epRHS="9.9999999999999995e-07"
   maxIntInfeas="0"
   maxPrimalInfeas="0"
   maxX="1"
   maxSlack="1"/>
 <variables>
  <variable name="Y(1,2)" index="1" value="1"/>
  <variable name="Y(2,3)" index="134" value="1"/>
  <variable name="Y(3,4)" index="267" value="1"/>
  <variable name="Y(4,5)" index="400" value="1"/>
  <variable name="Y(5,6)" index="533" value="1"/>
  <variable name="Y(6,7)" index="666" value="1"/>
  <variable name="Y(7,8)" index="799" value="1"/>
  <variable name="Y(8,9)" index="932" value="1"/>
  <variable name="Y(9,10)" index="1065" value="1"/>
  <variable name="Y(10,11)" index="1198" value="1"/>
  <variable name="Y(11,12)" index="1331" value="1"/>
  <variable name="Y(12,13)" index="1464" value="1"/>
  <variable name="Y(13,14)" index="1597" value="1"/>
  <variable name="Y(14,15)" index="1730" value="1"/>
  <variable name="Y(15,16)" index="1863" value="1"/>
  <variable name="Y(16,17)" index="1996" value="1"/>
  <variable name="Y(17,18)" index="2129" value="1"/>
  <variable name="Y(18,19)" index="2262" value="1"/>
  <variable name="Y(19,20)" index="2395" value="1"/>
  <variable name="Y(20,21)" index="2528" value="1"/>
  <variable name="Y(21,22)" index="2661" value="1"/>
  <variable name="Y(22,23)" index="2794" value="1"/>
  <variable name="Y(23,24)" index="2927" value="1"/>
  <variable name="Y(24,25)" index="3060" value="1"/>
  <variable name="Y(25,26)" index="3193" value="1"/>
  <variable name="Y(26,27)" index="3326" value="1"/>
  <variable name="Y(27,28)" index="3459" value="1"/>
  <variable name="Y(28,29)" index="3592" value="1"/>
  <variable name="Y(29,30)" index="3725" value="1"/>
  <variable name="Y(30,31)" index="3858" value="1"/>
  <variable name="Y(31,32)" index="3991" value="1"/>
  <variable name="Y(32,33)" index="4124" value="1"/>
  <variable name="Y(33,34)" index="4257" value="1"/>
  <variable name="Y(34,35)" index="4390" value="1"/>
  <variable name="Y(35,36)" index="4523" value="1"/>
  <variable name="Y(36,37)" index="4656" value="1"/>
  <variable name="Y(37,38)" index="4789" value="1"/>
  <variable name="Y(38,39)" index="4922" value="1"/>
  <variable name="Y(39,40)" index="5055" value="1"/>
  <variable name="Y(40,41)" index="5188" value="1"/>
  <variable name="Y(41,42)" index="5321" value="1"/>
  <variable name="Y(42,43)" index="5454" value="1"/>
  <variable name="Y(43,44)" index="5587" value="1"/>
  <variable name="Y(44,45)" index="5720" value="1"/>
  <variable name="Y(45,46)" index="5853" value="1"/>
  <variable name="Y(46,47)" index="5986" value="1"/>
  <variable name="Y(47,48)" index="6119" value="1"/>
  <variable name="Y(48,49)" index="6252" value="1"/>
  <variable name="Y(49,50)" index="6385" value="1"/>
  <variable name="Y(50,51)" index="6518" value="1"/>
  <variable name="Y(51,52)" index="6651" value="1"/>
  <variable name="Y(52,53)" index="6784" value="1"/>
  <variable name="Y(53,54)" index="6917" value="1"/>
  <variable name="Y(54,55)" index="7050" value="1"/>
  <variable name="Y(55,56)" index="7183" value="1"/>
  <variable name="Y(56,57)" index="7316" value="1"/>
  <variable name="Y(57,58)" index="7449" value="1"/>
  <variable name="Y(58,59)" index="7582" value="1"/>
  <variable name="Y(59,60)" index="7715" value="1"/>
  <variable name="Y(60,61)" index="7848" value="1"/>
  <variable name="Y(61,62)" index="7981" value="1"/>
  <variable name="Y(62,63)" index="8114" value="1"/>
  <variable name="Y(63,64)" index="8247" value="1"/>
  <variable name="Y(64,65)" index="8380" value="1"/>
  <variable name="Y(65,66)" index="8513" value="1"/>
  <variable name="Y(66,1)" index="8580" value="1"/>
  <variable name="X(1,4,1)" index="566280" value="1"/>
  <variable name="X(1,7,4)" index="570573" value="1"/>
  <variable name="X(1,12,11)" index="574870" value="1"/>
  <variable name="X(1,51,50)" index="579199" value="1"/>
  <variable name="X(1,67,66)" index="583505" value="1"/>
  <variable name="X(2,4,66)" index="587795" value="1"/>
  <variable name="X(2,7,69)" index="592088" value="1"/>
  <variable name="X(2,8,7)" index="596316" value="1"/>
  <variable name="X(2,19,16)" index="600615" value="1"/>
  <variable name="X(2,20,12)" index="604901" value="1"/>
  <variable name="X(2,21,20)" index="609199" value="1"/>
  <variable name="X(2,22,21)" index="613490" value="1"/>
  <variable name="X(2,46,8)" index="617767" value="1"/>
  <variable name="X(2,62,67)" index="622116" value="1"/>
  <variable name="X(2,68,1)" index="626340" value="1"/>
  <variable name="X(3,62,131)" index="630760" value="1"/>
  <variable name="X(3,69,2)" index="634921" value="1"/>
  <variable name="X(4,1,66)" index="639275" value="1"/>
  <variable name="X(4,2,1)" index="643500" value="1"/>
  <variable name="X(4,6,5)" index="647794" value="1"/>
  <variable name="X(4,11,10)" index="652089" value="1"/>
  <variable name="X(4,49,48)" index="656417" value="1"/>
  <variable name="X(4,62,2)" index="660661" value="1"/>
  <variable name="X(4,70,3)" index="664952" value="1"/>
  <variable name="X(5,7,261)" index="669500" value="1"/>
  <variable name="X(5,8,267)" index="673796" value="1"/>
  <variable name="X(5,23,22)" index="677841" value="1"/>
  <variable name="X(5,24,23)" index="682132" value="1"/>
  <variable name="X(5,71,4)" index="686403" value="1"/>
  <variable name="X(6,4,326)" index="691015" value="1"/>
  <variable name="X(6,50,49)" index="695028" value="1"/>
  <variable name="X(6,72,5)" index="699274" value="1"/>
  <variable name="X(7,1,261)" index="703820" value="1"/>
  <variable name="X(7,2,262)" index="708111" value="1"/>
  <variable name="X(7,5,4)" index="712143" value="1"/>
  <variable name="X(7,11,270)" index="716699" value="1"/>
  <variable name="X(7,47,46)" index="720765" value="1"/>
  <variable name="X(7,52,51)" index="725060" value="1"/>
  <variable name="X(7,53,52)" index="729351" value="1"/>
  <variable name="X(7,61,55)" index="733644" value="1"/>
  <variable name="X(7,73,6)" index="737885" value="1"/>
  <variable name="X(8,2,456)" index="742625" value="1"/>
  <variable name="X(8,5,460)" index="746919" value="1"/>
  <variable name="X(8,74,7)" index="750756" value="1"/>
  <variable name="X(9,46,521)" index="755560" value="1"/>
  <variable name="X(9,75,8)" index="759337" value="1"/>
  <variable name="X(10,46,586)" index="764205" value="1"/>
  <variable name="X(10,76,9)" index="767918" value="1"/>
  <variable name="X(11,4,651)" index="772850" value="1"/>
  <variable name="X(11,7,655)" index="777144" value="1"/>
  <variable name="X(11,48,47)" index="780826" value="1"/>
  <variable name="X(11,54,53)" index="785122" value="1"/>
  <variable name="X(11,55,54)" index="789413" value="1"/>
  <variable name="X(11,77,10)" index="793659" value="1"/>
  <variable name="X(12,1,716)" index="798655" value="1"/>
  <variable name="X(12,78,11)" index="802240" value="1"/>
  <variable name="X(13,20,781)" index="807300" value="1"/>
  <variable name="X(13,79,12)" index="810821" value="1"/>
  <variable name="X(14,20,846)" index="815945" value="1"/>
  <variable name="X(14,80,13)" index="819402" value="1"/>
  <variable name="X(15,20,911)" index="824590" value="1"/>
  <variable name="X(15,81,14)" index="827983" value="1"/>
  <variable name="X(16,20,976)" index="833235" value="1"/>
  <variable name="X(16,82,15)" index="836564" value="1"/>
  <variable name="X(17,18,17)" index="840856" value="1"/>
  <variable name="X(17,19,1041)" index="846170" value="1"/>
  <variable name="X(17,26,1049)" index="850468" value="1"/>
  <variable name="X(17,39,38)" index="853747" value="1"/>
  <variable name="X(17,60,576)" index="858575" value="1"/>
  <variable name="X(17,83,16)" index="862305" value="1"/>
  <variable name="X(18,17,1106)" index="867685" value="1"/>
  <variable name="X(18,84,17)" index="870886" value="1"/>
  <variable name="X(19,2,1041)" index="876200" value="1"/>
  <variable name="X(19,17,16)" index="879465" value="1"/>
  <variable name="X(19,38,37)" index="883776" value="1"/>
  <variable name="X(19,40,39)" index="888068" value="1"/>
  <variable name="X(19,41,40)" index="892359" value="1"/>
  <variable name="X(19,85,18)" index="896627" value="1"/>
  <variable name="X(20,2,781)" index="901680" value="1"/>
  <variable name="X(20,13,12)" index="905201" value="1"/>
  <variable name="X(20,14,13)" index="909492" value="1"/>
  <variable name="X(20,15,14)" index="913783" value="1"/>
  <variable name="X(20,16,15)" index="918074" value="1"/>
  <variable name="X(20,21,800)" index="923149" value="1"/>
  <variable name="X(20,26,796)" index="927435" value="1"/>
  <variable name="X(20,29,28)" index="930957" value="1"/>
  <variable name="X(20,30,29)" index="935248" value="1"/>
  <variable name="X(20,31,30)" index="939539" value="1"/>
  <variable name="X(20,44,43)" index="943842" value="1"/>
  <variable name="X(20,46,789)" index="948878" value="1"/>
  <variable name="X(20,86,19)" index="952398" value="1"/>
  <variable name="X(21,2,1301)" index="957970" value="1"/>
  <variable name="X(21,20,1313)" index="962272" value="1"/>
  <variable name="X(21,42,41)" index="965290" value="1"/>
  <variable name="X(21,43,42)" index="969581" value="1"/>
  <variable name="X(21,45,44)" index="973873" value="1"/>
  <variable name="X(21,87,20)" index="978139" value="1"/>
  <variable name="X(22,2,1366)" index="983775" value="1"/>
  <variable name="X(22,88,21)" index="986720" value="1"/>
  <variable name="X(23,5,1431)" index="992420" value="1"/>
  <variable name="X(23,89,22)" index="995301" value="1"/>
  <variable name="X(24,5,1496)" index="1001065" value="1"/>
  <variable name="X(24,90,23)" index="1003882" value="1"/>
  <variable name="X(25,26,1573)" index="1009722" value="1"/>
  <variable name="X(25,35,34)" index="1012473" value="1"/>
  <variable name="X(25,46,1561)" index="1018290" value="1"/>
  <variable name="X(25,91,24)" index="1021043" value="1"/>
  <variable name="X(26,17,536)" index="1025845" value="1"/>
  <variable name="X(26,20,1053)" index="1030652" value="1"/>
  <variable name="X(26,25,1064)" index="1034953" value="1"/>
  <variable name="X(26,32,31)" index="1038210" value="1"/>
  <variable name="X(26,33,32)" index="1042501" value="1"/>
  <variable name="X(26,34,33)" index="1046792" value="1"/>
  <variable name="X(26,46,1049)" index="1052098" value="1"/>
  <variable name="X(26,92,25)" index="1055364" value="1"/>
  <variable name="X(27,46,1691)" index="1061320" value="1"/>
  <variable name="X(27,93,26)" index="1063945" value="1"/>
  <variable name="X(28,46,1756)" index="1069965" value="1"/>
  <variable name="X(28,94,27)" index="1072526" value="1"/>
  <variable name="X(29,20,1821)" index="1078610" value="1"/>
  <variable name="X(29,95,28)" index="1081107" value="1"/>
  <variable name="X(30,20,1886)" index="1087255" value="1"/>
  <variable name="X(30,96,29)" index="1089688" value="1"/>
  <variable name="X(31,20,1951)" index="1095900" value="1"/>
  <variable name="X(31,97,30)" index="1098269" value="1"/>
  <variable name="X(32,26,2016)" index="1104545" value="1"/>
  <variable name="X(32,98,31)" index="1106850" value="1"/>
  <variable name="X(33,26,2081)" index="1113190" value="1"/>
  <variable name="X(33,99,32)" index="1115431" value="1"/>
  <variable name="X(34,26,2146)" index="1121835" value="1"/>
  <variable name="X(34,100,33)" index="1124012" value="1"/>
  <variable name="X(35,25,2211)" index="1130480" value="1"/>
  <variable name="X(35,101,34)" index="1132593" value="1"/>
  <variable name="X(36,46,2276)" index="1139125" value="1"/>
  <variable name="X(36,102,35)" index="1141174" value="1"/>
  <variable name="X(37,46,2341)" index="1147770" value="1"/>
  <variable name="X(37,103,36)" index="1149755" value="1"/>
  <variable name="X(38,19,2406)" index="1156415" value="1"/>
  <variable name="X(38,104,37)" index="1158336" value="1"/>
  <variable name="X(39,17,2471)" index="1165060" value="1"/>
  <variable name="X(39,105,38)" index="1166917" value="1"/>
  <variable name="X(40,19,2536)" index="1173705" value="1"/>
  <variable name="X(40,106,39)" index="1175498" value="1"/>
  <variable name="X(41,19,2601)" index="1182350" value="1"/>
  <variable name="X(41,107,40)" index="1184079" value="1"/>
  <variable name="X(42,21,2666)" index="1190995" value="1"/>
  <variable name="X(42,108,41)" index="1192660" value="1"/>
  <variable name="X(43,21,2731)" index="1199640" value="1"/>
  <variable name="X(43,109,42)" index="1201241" value="1"/>
  <variable name="X(44,20,2796)" index="1208285" value="1"/>
  <variable name="X(44,110,43)" index="1209822" value="1"/>
  <variable name="X(45,21,2861)" index="1216930" value="1"/>
  <variable name="X(45,111,44)" index="1218403" value="1"/>
  <variable name="X(46,2,521)" index="1223170" value="1"/>
  <variable name="X(46,9,8)" index="1226947" value="1"/>
  <variable name="X(46,10,9)" index="1231238" value="1"/>
  <variable name="X(46,20,532)" index="1236051" value="1"/>
  <variable name="X(46,25,24)" index="1239833" value="1"/>
  <variable name="X(46,26,25)" index="1244124" value="1"/>
  <variable name="X(46,27,26)" index="1248415" value="1"/>
  <variable name="X(46,28,27)" index="1252706" value="1"/>
  <variable name="X(46,36,35)" index="1257004" value="1"/>
  <variable name="X(46,37,36)" index="1261295" value="1"/>
  <variable name="X(46,63,62)" index="1265611" value="1"/>
  <variable name="X(46,112,45)" index="1269884" value="1"/>
  <variable name="X(47,7,2991)" index="1277120" value="1"/>
  <variable name="X(47,113,46)" index="1278465" value="1"/>
  <variable name="X(48,11,3056)" index="1285765" value="1"/>
  <variable name="X(48,114,47)" index="1287046" value="1"/>
  <variable name="X(49,4,3121)" index="1294410" value="1"/>
  <variable name="X(49,115,48)" index="1295627" value="1"/>
  <variable name="X(50,6,3186)" index="1303055" value="1"/>
  <variable name="X(50,116,49)" index="1304208" value="1"/>
  <variable name="X(51,1,3251)" index="1311700" value="1"/>
  <variable name="X(51,117,50)" index="1312789" value="1"/>
  <variable name="X(52,7,3316)" index="1320345" value="1"/>
  <variable name="X(52,118,51)" index="1321370" value="1"/>
  <variable name="X(53,7,3381)" index="1328990" value="1"/>
  <variable name="X(53,119,52)" index="1329951" value="1"/>
  <variable name="X(54,11,3446)" index="1337635" value="1"/>
  <variable name="X(54,120,53)" index="1338532" value="1"/>
  <variable name="X(55,11,3511)" index="1346280" value="1"/>
  <variable name="X(55,121,54)" index="1347113" value="1"/>
  <variable name="X(56,61,3576)" index="1354925" value="1"/>
  <variable name="X(56,122,55)" index="1355694" value="1"/>
  <variable name="X(57,60,3641)" index="1363570" value="1"/>
  <variable name="X(57,123,56)" index="1364275" value="1"/>
  <variable name="X(58,62,3706)" index="1372215" value="1"/>
  <variable name="X(58,124,57)" index="1372856" value="1"/>
  <variable name="X(59,60,186)" index="1377275" value="1"/>
  <variable name="X(59,62,3643)" index="1385022" value="1"/>
  <variable name="X(59,125,58)" index="1385727" value="1"/>
  <variable name="X(60,17,3592)" index="1393551" value="1"/>
  <variable name="X(60,57,56)" index="1394305" value="1"/>
  <variable name="X(60,59,1098)" index="1399637" value="1"/>
  <variable name="X(60,61,1095)" index="1403924" value="1"/>
  <variable name="X(60,65,64)" index="1407183" value="1"/>
  <variable name="X(60,66,65)" index="1411474" value="1"/>
  <variable name="X(60,126,59)" index="1415758" value="1"/>
  <variable name="X(61,7,3576)" index="1423565" value="1"/>
  <variable name="X(61,56,55)" index="1424334" value="1"/>
  <variable name="X(61,60,56)" index="1428625" value="1"/>
  <variable name="X(61,62,3578)" index="1436437" value="1"/>
  <variable name="X(61,64,63)" index="1437212" value="1"/>
  <variable name="X(61,127,60)" index="1441499" value="1"/>
  <variable name="X(62,2,132)" index="1445861" value="1"/>
  <variable name="X(62,3,2)" index="1450021" value="1"/>
  <variable name="X(62,4,131)" index="1454440" value="1"/>
  <variable name="X(62,58,57)" index="1458656" value="1"/>
  <variable name="X(62,59,58)" index="1462947" value="1"/>
  <variable name="X(62,61,185)" index="1467364" value="1"/>
  <variable name="X(62,128,61)" index="1471530" value="1"/>
  <variable name="X(63,46,4031)" index="1479790" value="1"/>
  <variable name="X(63,129,62)" index="1480111" value="1"/>
  <variable name="X(64,61,4096)" index="1488435" value="1"/>
  <variable name="X(64,130,63)" index="1488692" value="1"/>
  <variable name="X(65,60,4161)" index="1497080" value="1"/>
  <variable name="X(65,131,64)" index="1497273" value="1"/>
  <variable name="X(66,60,4226)" index="1505725" value="1"/>
  <variable name="X(66,132,65)" index="1505854" value="1"/>
 </variables>
</CPLEXSolution>
